bin_packing.sol
<?xml version = "1.0" encoding="UTF-8" standalone="yes"?>
<CPLEXSolution version="1.2">
 <header
   problemName="TP1"
   solutionName="incumbent"
   solutionIndex="-1"
   objectiveValue="2"
   solutionTypeValue="3"
   solutionTypeString="primal"
   solutionStatusValue="101"
   solutionStatusString="integer optimal solution"
   solutionMethodString="mip"
   primalFeasible="1"
   dualFeasible="1"
   MIPNodes="0"
   MIPIterations="18"
   writeLevel="1"/>
 <quality
   epInt="1.0000000000000001e-05"
   epRHS="9.9999999999999995e-07"
   maxIntInfeas="2.2204460492503131e-16"
   maxPrimalInfeas="2.2204460492503131e-16"
   maxX="1.0000000000000002"
   maxSlack="8.8817841970012523e-16"/>
 <linearConstraints>
  <constraint name="bin_sac_i0" index="0" slack="0"/>
  <constraint name="bin_sac_i1" index="1" slack="0"/>
  <constraint name="bin_sac_i2" index="2" slack="0"/>
  <constraint name="bin_sac_i3" index="3" slack="8.8817841970012523e-16"/>
  <constraint name="bin_sac_i4" index="4" slack="-2.2204460492503131e-16"/>
  <constraint name="bin_sac_i5" index="5" slack="0"/>
  <constraint name="bin_sac_i6" index="6" slack="0"/>
  <constraint name="objectUsed_i0" index="7" slack="0"/>
  <constraint name="objectUsed_i1" index="8" slack="-2.2204460492503131e-16"/>
  <constraint name="objectUsed_i2" index="9" slack="0"/>
  <constraint name="objectUsed_i3" index="10" slack="0"/>
  <constraint name="objectUsed_i4" index="11" slack="0"/>
  <constraint name="objectUsed_i5" index="12" slack="0"/>
  <constraint name="objectUsed_i6" index="13" slack="-2.2204460492503131e-16"/>
 </linearConstraints>
 <variables>
  <variable name="y_i0" index="0" value="0"/>
  <variable name="y_i1" index="1" value="0"/>
  <variable name="y_i2" index="2" value="-0"/>
  <variable name="y_i3" index="3" value="1.0000000000000002"/>
  <variable name="y_i4" index="4" value="1"/>
  <variable name="y_i5" index="5" value="-0"/>
  <variable name="y_i6" index="6" value="-0"/>
  <variable name="x_i0_j0" index="7" value="-0"/>
  <variable name="x_i0_j1" index="8" value="-0"/>
  <variable name="x_i0_j2" index="9" value="-0"/>
  <variable name="x_i0_j3" index="10" value="0"/>
  <variable name="x_i0_j4" index="11" value="0"/>
  <variable name="x_i0_j5" index="12" value="-0"/>
  <variable name="x_i0_j6" index="13" value="0"/>
  <variable name="x_i1_j0" index="14" value="-0"/>
  <variable name="x_i1_j1" index="15" value="0"/>
  <variable name="x_i1_j2" index="16" value="-0"/>
  <variable name="x_i1_j3" index="17" value="-0"/>
  <variable name="x_i1_j4" index="18" value="-0"/>
  <variable name="x_i1_j5" index="19" value="-0"/>
  <variable name="x_i1_j6" index="20" value="-0"/>
  <variable name="x_i2_j0" index="21" value="-0"/>
  <variable name="x_i2_j1" index="22" value="-0"/>
  <variable name="x_i2_j2" index="23" value="-0"/>
  <variable name="x_i2_j3" index="24" value="-0"/>
  <variable name="x_i2_j4" index="25" value="-0"/>
  <variable name="x_i2_j5" index="26" value="0"/>
  <variable name="x_i2_j6" index="27" value="0"/>
  <variable name="x_i3_j0" index="28" value="1"/>
  <variable name="x_i3_j1" index="29" value="1.0000000000000002"/>
  <variable name="x_i3_j2" index="30" value="-0"/>
  <variable name="x_i3_j3" index="31" value="-0"/>
  <variable name="x_i3_j4" index="32" value="1"/>
  <variable name="x_i3_j5" index="33" value="-0"/>
  <variable name="x_i3_j6" index="34" value="-0"/>
  <variable name="x_i4_j0" index="35" value="-0"/>
  <variable name="x_i4_j1" index="36" value="-0"/>
  <variable name="x_i4_j2" index="37" value="1"/>
  <variable name="x_i4_j3" index="38" value="1"/>
  <variable name="x_i4_j4" index="39" value="-0"/>
  <variable name="x_i4_j5" index="40" value="1"/>
  <variable name="x_i4_j6" index="41" value="1.0000000000000002"/>
  <variable name="x_i5_j0" index="42" value="-0"/>
  <variable name="x_i5_j1" index="43" value="-0"/>
  <variable name="x_i5_j2" index="44" value="0"/>
  <variable name="x_i5_j3" index="45" value="-0"/>
  <variable name="x_i5_j4" index="46" value="-0"/>
  <variable name="x_i5_j5" index="47" value="-0"/>
  <variable name="x_i5_j6" index="48" value="-0"/>
  <variable name="x_i6_j0" index="49" value="-0"/>
  <variable name="x_i6_j1" index="50" value="0"/>
  <variable name="x_i6_j2" index="51" value="-0"/>
  <variable name="x_i6_j3" index="52" value="-0"/>
  <variable name="x_i6_j4" index="53" value="-0"/>
  <variable name="x_i6_j5" index="54" value="-0"/>
  <variable name="x_i6_j6" index="55" value="-0"/>
 </variables>
</CPLEXSolution>
